letting numberLocations be  15
letting costs be function (
(0,0) --> 0,
(0,1) --> 14,
(0,2) --> 21,
(0,3) --> 33,
(0,4) --> 22,
(0,5) --> 23,
(0,6) --> 12,
(0,7) --> 22,
(0,8) --> 32,
(0,9) --> 32,
(0,10) --> 21,
(0,11) --> 28,
(0,12) --> 30,
(0,13) --> 29,
(0,14) --> 31,
(0,15) --> 30,
(1,0) --> 14,
(1,1) --> 0,
(1,2) --> 12,
(1,3) --> 19,
(1,4) --> 12,
(1,5) --> 24,
(1,6) --> 12,
(1,7) --> 19,
(1,8) --> 21,
(1,9) --> 27,
(1,10) --> 7,
(1,11) --> 19,
(1,12) --> 16,
(1,13) --> 21,
(1,14) --> 33,
(1,15) --> 17,
(2,0) --> 21,
(2,1) --> 12,
(2,2) --> 0,
(2,3) --> 15,
(2,4) --> 22,
(2,5) --> 16,
(2,6) --> 11,
(2,7) --> 9,
(2,8) --> 12,
(2,9) --> 15,
(2,10) --> 11,
(2,11) --> 29,
(2,12) --> 19,
(2,13) --> 9,
(2,14) --> 24,
(2,15) --> 23,
(3,0) --> 33,
(3,1) --> 19,
(3,2) --> 15,
(3,3) --> 0,
(3,4) --> 21,
(3,5) --> 31,
(3,6) --> 25,
(3,7) --> 23,
(3,8) --> 8,
(3,9) --> 24,
(3,10) --> 12,
(3,11) --> 25,
(3,12) --> 9,
(3,13) --> 17,
(3,14) --> 37,
(3,15) --> 16,
(4,0) --> 22,
(4,1) --> 12,
(4,2) --> 22,
(4,3) --> 21,
(4,4) --> 0,
(4,5) --> 36,
(4,6) --> 24,
(4,7) --> 30,
(4,8) --> 26,
(4,9) --> 37,
(4,10) --> 12,
(4,11) --> 7,
(4,12) --> 13,
(4,13) --> 30,
(4,14) --> 44,
(4,15) --> 9,
(5,0) --> 23,
(5,1) --> 24,
(5,2) --> 16,
(5,3) --> 31,
(5,4) --> 36,
(5,5) --> 0,
(5,6) --> 13,
(5,7) --> 8,
(5,8) --> 25,
(5,9) --> 13,
(5,10) --> 26,
(5,11) --> 43,
(5,12) --> 35,
(5,13) --> 16,
(5,14) --> 8,
(5,15) --> 39,
(6,0) --> 12,
(6,1) --> 12,
(6,2) --> 11,
(6,3) --> 25,
(6,4) --> 24,
(6,5) --> 13,
(6,6) --> 0,
(6,7) --> 10,
(6,8) --> 23,
(6,9) --> 20,
(6,10) --> 16,
(6,11) --> 31,
(6,12) --> 26,
(6,13) --> 17,
(6,14) --> 21,
(6,15) --> 28,
(7,0) --> 22,
(7,1) --> 19,
(7,2) --> 9,
(7,3) --> 23,
(7,4) --> 30,
(7,5) --> 8,
(7,6) --> 10,
(7,7) --> 0,
(7,8) --> 18,
(7,9) --> 10,
(7,10) --> 19,
(7,11) --> 37,
(7,12) --> 28,
(7,13) --> 9,
(7,14) --> 15,
(7,15) --> 32,
(8,0) --> 32,
(8,1) --> 21,
(8,2) --> 12,
(8,3) --> 8,
(8,4) --> 26,
(8,5) --> 25,
(8,6) --> 23,
(8,7) --> 18,
(8,8) --> 0,
(8,9) --> 17,
(8,10) --> 15,
(8,11) --> 32,
(8,12) --> 17,
(8,13) --> 10,
(8,14) --> 31,
(8,15) --> 23,
(9,0) --> 32,
(9,1) --> 27,
(9,2) --> 15,
(9,3) --> 24,
(9,4) --> 37,
(9,5) --> 13,
(9,6) --> 20,
(9,7) --> 10,
(9,8) --> 17,
(9,9) --> 0,
(9,10) --> 25,
(9,11) --> 44,
(9,12) --> 31,
(9,13) --> 7,
(9,14) --> 16,
(9,15) --> 37,
(10,0) --> 21,
(10,1) --> 7,
(10,2) --> 11,
(10,3) --> 12,
(10,4) --> 12,
(10,5) --> 26,
(10,6) --> 16,
(10,7) --> 19,
(10,8) --> 15,
(10,9) --> 25,
(10,10) --> 0,
(10,11) --> 19,
(10,12) --> 10,
(10,13) --> 18,
(10,14) --> 34,
(10,15) --> 13,
(11,0) --> 28,
(11,1) --> 19,
(11,2) --> 29,
(11,3) --> 25,
(11,4) --> 7,
(11,5) --> 43,
(11,6) --> 31,
(11,7) --> 37,
(11,8) --> 32,
(11,9) --> 44,
(11,10) --> 19,
(11,11) --> 0,
(11,12) --> 16,
(11,13) --> 37,
(11,14) --> 51,
(11,15) --> 10,
(12,0) --> 30,
(12,1) --> 16,
(12,2) --> 19,
(12,3) --> 9,
(12,4) --> 13,
(12,5) --> 35,
(12,6) --> 26,
(12,7) --> 28,
(12,8) --> 17,
(12,9) --> 31,
(12,10) --> 10,
(12,11) --> 16,
(12,12) --> 0,
(12,13) --> 24,
(12,14) --> 43,
(12,15) --> 6,
(13,0) --> 29,
(13,1) --> 21,
(13,2) --> 9,
(13,3) --> 17,
(13,4) --> 30,
(13,5) --> 16,
(13,6) --> 17,
(13,7) --> 9,
(13,8) --> 10,
(13,9) --> 7,
(13,10) --> 18,
(13,11) --> 37,
(13,12) --> 24,
(13,13) --> 0,
(13,14) --> 21,
(13,15) --> 30,
(14,0) --> 31,
(14,1) --> 33,
(14,2) --> 24,
(14,3) --> 37,
(14,4) --> 44,
(14,5) --> 8,
(14,6) --> 21,
(14,7) --> 15,
(14,8) --> 31,
(14,9) --> 16,
(14,10) --> 34,
(14,11) --> 51,
(14,12) --> 43,
(14,13) --> 21,
(14,14) --> 0,
(14,15) --> 47,
(15,0) --> 30,
(15,1) --> 17,
(15,2) --> 23,
(15,3) --> 16,
(15,4) --> 9,
(15,5) --> 39,
(15,6) --> 28,
(15,7) --> 32,
(15,8) --> 23,
(15,9) --> 37,
(15,10) --> 13,
(15,11) --> 10,
(15,12) --> 6,
(15,13) --> 30,
(15,14) --> 47,
(15,15) --> 0)
letting orderWeights be function (
1 --> 19
,
2 --> 30
,
3 --> 16
,
4 --> 23
,
5 --> 11
,
6 --> 31
,
7 --> 15
,
8 --> 28
,
9 --> 8
,
10 --> 8
,
11 --> 7
,
12 --> 14
,
13 --> 6
,
14 --> 19
,
15 --> 11
)
letting vehicleCapacity be 35
